\Generated by Cardinal Operations

Maximize
   886.96 x_CB10:45_f + 263.88 x_CB10:45_l + 1464.07 x_AB11:20_f 
   + 441.88 x_AB11:20_l + 873.59 x_BC11:20_f + 269.24 x_BC11:20_l 
   + 1479.64 x_BA12:25_f + 470.28 x_BA12:25_l + 1520.65 x_BC12:25_f 
   + 596.4400000000001 x_BC12:25_l + 883.77 x_CB12:35_f 
   + 299.39 x_CB12:35_l + 1467.29 x_AB12:40_f + 505.8 x_AB12:40_l 
   + 856.66 x_AB12:55_f + 279.25 x_AB12:55_l + 1663.16 x_AC13:05_f 
   + 565.96 x_AC13:05_l + 1477.78 x_AB13:55_f + 464.67 x_AB13:55_l 
   + 1638.05 x_CA14:15_f + 531.5 x_CA14:15_l + 1510.9 x_CB14:15_f 
   + 496.51 x_CB14:15_l + 1480.24 x_BA14:25_f + 470.65 x_BA14:25_l 
   + 1521.05 x_BC14:25_f + 821.73 x_BC14:25_l + 1475.99 x_BA15:40_f 
   + 444.2 x_BA15:40_l + 1544.13 x_BC15:40_f + 483.3 x_BC15:40_l 
   + 1669.65 x_AC15:45_f + 506.95 x_AC15:45_l + 852.25 x_AB16:05_f 
   + 275.1 x_AB16:05_l + 907.0599999999999 x_BC16:30_f + 268.12 x_BC16:30_l 
   + 1665.33 x_CA16:55_f + 493.28 x_CA16:55_l + 1583 x_CB16:55_f 
   + 558.48 x_CB16:55_l + 1475.07 x_AB17:05_f + 461.18 x_AB17:05_l 
   + 1670.39 x_AC17:25_f + 473.92 x_AC17:25_l 
   + 872.1799999999999 x_CB17:40_f + 265.62 x_CB17:40_l 
   + 833.23 x_AB18:00_f + 261.39 x_AB18:00_l + 1665.21 x_CA18:30_f 
   + 463.64 x_CA18:30_l + 1523 x_CB18:30_f + 443.91 x_CB18:30_l 
   + 1462.12 x_BA18:50_f + 447.25 x_BA18:50_l + 875.17 x_BC19:05_f 
   + 282.71 x_BC19:05_l + 1466.01 x_AB19:10_f + 433.96 x_AB19:10_l 
   + 1462.84 x_BA20:25_f + 423.5 x_BA20:25_l + 1455.47 x_AB22:45_f 
   + 436.14 x_AB22:45_l 
Subject To
 capacity_constraint_CB10:45: 2 x_CB10:45_f + x_CB10:45_l <= 187
 balance_constraint_CB10:45: 1.72 x_CB10:45_0 + 0.97 x_CB10:45_f 
   + 0.97 x_CB10:45_l <= 143.36
 M_constraint_CB10:45_0: - 10000 y_CB10:45 + x_CB10:45_0 <= 0
 M_constraint_CB10:45_f: - 10000 y_CB10:45 + x_CB10:45_f <= 0
 M_constraint_CB10:45_l: - 10000 y_CB10:45 + x_CB10:45_l <= 0
 scale_constraint_CB10:45_f: 1.916 x_CB10:45_0 - 1.2 x_CB10:45_f >= 0
 scale_constraint_CB10:45_l: x_CB10:45_0 - 1.2 x_CB10:45_l >= 0
 capacity_constraint_AB11:20: 2 x_AB11:20_f + x_AB11:20_l <= 187
 balance_constraint_AB11:20: 4.92 x_AB11:20_0 + 0.72 x_AB11:20_f 
   + 0.72 x_AB11:20_l <= 179.35
 M_constraint_AB11:20_0: - 10000 y_AB11:20 + x_AB11:20_0 <= 0
 M_constraint_AB11:20_f: - 10000 y_AB11:20 + x_AB11:20_f <= 0
 M_constraint_AB11:20_l: - 10000 y_AB11:20 + x_AB11:20_l <= 0
 scale_constraint_AB11:20_f: 2.05 x_AB11:20_0 - 0.9 x_AB11:20_f >= 0
 scale_constraint_AB11:20_l: x_AB11:20_0 - 0.9 x_AB11:20_l >= 0
 capacity_constraint_BC11:20: 2 x_BC11:20_f + x_BC11:20_l <= 187
 balance_constraint_BC11:20: 3.7 x_BC11:20_0 + 0.9 x_BC11:20_f 
   + 0.9 x_BC11:20_l <= 147.64
 M_constraint_BC11:20_0: - 10000 y_BC11:20 + x_BC11:20_0 <= 0
 M_constraint_BC11:20_f: - 10000 y_BC11:20 + x_BC11:20_f <= 0
 M_constraint_BC11:20_l: - 10000 y_BC11:20 + x_BC11:20_l <= 0
 scale_constraint_BC11:20_f: 1.864 x_BC11:20_0 - 2 x_BC11:20_f >= 0
 scale_constraint_BC11:20_l: x_BC11:20_0 - 2 x_BC11:20_l >= 0
 capacity_constraint_BA12:25: 2 x_BA12:25_f + x_BA12:25_l <= 187
 balance_constraint_BA12:25: 3.7 x_BA12:25_0 + 0.9 x_BA12:25_f 
   + 0.9 x_BA12:25_l <= 127.15
 M_constraint_BA12:25_0: - 10000 y_BA12:25 + x_BA12:25_0 <= 0
 M_constraint_BA12:25_f: - 10000 y_BA12:25 + x_BA12:25_f <= 0
 M_constraint_BA12:25_l: - 10000 y_BA12:25 + x_BA12:25_l <= 0
 scale_constraint_BA12:25_f: 3.079 x_BA12:25_0 - 2 x_BA12:25_f >= 0
 scale_constraint_BA12:25_l: 1.652 x_BA12:25_0 - 2 x_BA12:25_l >= 0
 capacity_constraint_BC12:25: 2 x_BC12:25_f + x_BC12:25_l <= 187
 balance_constraint_BC12:25: 3.7 x_BC12:25_0 + 0.9 x_BC12:25_f 
   + 0.9 x_BC12:25_l <= 39.79
 M_constraint_BC12:25_0: - 10000 y_BC12:25 + x_BC12:25_0 <= 0
 M_constraint_BC12:25_f: - 10000 y_BC12:25 + x_BC12:25_f <= 0
 M_constraint_BC12:25_l: - 10000 y_BC12:25 + x_BC12:25_l <= 0
 scale_constraint_BC12:25_f: 3.079 x_BC12:25_0 - 2 x_BC12:25_f >= 0
 scale_constraint_BC12:25_l: 1.652 x_BC12:25_0 - 2 x_BC12:25_l >= 0
 capacity_constraint_CB12:35: 2 x_CB12:35_f + x_CB12:35_l <= 187
 balance_constraint_CB12:35: 1.72 x_CB12:35_0 + 0.97 x_CB12:35_f 
   + 0.97 x_CB12:35_l <= 176.5
 M_constraint_CB12:35_0: - 10000 y_CB12:35 + x_CB12:35_0 <= 0
 M_constraint_CB12:35_f: - 10000 y_CB12:35 + x_CB12:35_f <= 0
 M_constraint_CB12:35_l: - 10000 y_CB12:35 + x_CB12:35_l <= 0
 scale_constraint_CB12:35_f: 2.826 x_CB12:35_0 - 1.2 x_CB12:35_f >= 0
 scale_constraint_CB12:35_l: 1.475 x_CB12:35_0 - 1.2 x_CB12:35_l >= 0
 capacity_constraint_AB12:40: 2 x_AB12:40_f + x_AB12:40_l <= 187
 balance_constraint_AB12:40: 4.92 x_AB12:40_0 + 0.72 x_AB12:40_f 
   + 0.72 x_AB12:40_l <= 112.36
 M_constraint_AB12:40_0: - 10000 y_AB12:40 + x_AB12:40_0 <= 0
 M_constraint_AB12:40_f: - 10000 y_AB12:40 + x_AB12:40_f <= 0
 M_constraint_AB12:40_l: - 10000 y_AB12:40 + x_AB12:40_l <= 0
 scale_constraint_AB12:40_f: 2.803 x_AB12:40_0 - 0.9 x_AB12:40_f >= 0
 scale_constraint_AB12:40_l: 1.367 x_AB12:40_0 - 0.9 x_AB12:40_l >= 0
 capacity_constraint_AB12:55: 2 x_AB12:55_f + x_AB12:55_l <= 187
 balance_constraint_AB12:55: 4.92 x_AB12:55_0 + 0.72 x_AB12:55_f 
   + 0.72 x_AB12:55_l <= 151.72
 M_constraint_AB12:55_0: - 10000 y_AB12:55 + x_AB12:55_0 <= 0
 M_constraint_AB12:55_f: - 10000 y_AB12:55 + x_AB12:55_f <= 0
 M_constraint_AB12:55_l: - 10000 y_AB12:55 + x_AB12:55_l <= 0
 scale_constraint_AB12:55_f: 2.803 x_AB12:55_0 - 0.9 x_AB12:55_f >= 0
 scale_constraint_AB12:55_l: 1.367 x_AB12:55_0 - 0.9 x_AB12:55_l >= 0
 capacity_constraint_AC13:05: 2 x_AC13:05_f + x_AC13:05_l <= 187
 balance_constraint_AC13:05: 4.92 x_AC13:05_0 + 0.72 x_AC13:05_f 
   + 0.72 x_AC13:05_l <= 135.43
 M_constraint_AC13:05_0: - 10000 y_AC13:05 + x_AC13:05_0 <= 0
 M_constraint_AC13:05_f: - 10000 y_AC13:05 + x_AC13:05_f <= 0
 M_constraint_AC13:05_l: - 10000 y_AC13:05 + x_AC13:05_l <= 0
 scale_constraint_AC13:05_f: 2.803 x_AC13:05_0 - 0.9 x_AC13:05_f >= 0
 scale_constraint_AC13:05_l: 1.367 x_AC13:05_0 - 0.9 x_AC13:05_l >= 0
 capacity_constraint_AB13:55: 2 x_AB13:55_f + x_AB13:55_l <= 187
 balance_constraint_AB13:55: 4.92 x_AB13:55_0 + 0.72 x_AB13:55_f 
   + 0.72 x_AB13:55_l <= 170.64
 M_constraint_AB13:55_0: - 10000 y_AB13:55 + x_AB13:55_0 <= 0
 M_constraint_AB13:55_f: - 10000 y_AB13:55 + x_AB13:55_f <= 0
 M_constraint_AB13:55_l: - 10000 y_AB13:55 + x_AB13:55_l <= 0
 scale_constraint_AB13:55_f: 2.803 x_AB13:55_0 - 0.9 x_AB13:55_f >= 0
 scale_constraint_AB13:55_l: 1.367 x_AB13:55_0 - 0.9 x_AB13:55_l >= 0
 capacity_constraint_CA14:15: 2 x_CA14:15_f + x_CA14:15_l <= 187
 balance_constraint_CA14:15: 1.72 x_CA14:15_0 + 0.97 x_CA14:15_f 
   + 0.97 x_CA14:15_l <= 109.5
 M_constraint_CA14:15_0: - 10000 y_CA14:15 + x_CA14:15_0 <= 0
 M_constraint_CA14:15_f: - 10000 y_CA14:15 + x_CA14:15_f <= 0
 M_constraint_CA14:15_l: - 10000 y_CA14:15 + x_CA14:15_l <= 0
 scale_constraint_CA14:15_f: 2.826 x_CA14:15_0 - 1.2 x_CA14:15_f >= 0
 scale_constraint_CA14:15_l: 1.475 x_CA14:15_0 - 1.2 x_CA14:15_l >= 0
 capacity_constraint_CB14:15: 2 x_CB14:15_f + x_CB14:15_l <= 187
 balance_constraint_CB14:15: 1.72 x_CB14:15_0 + 0.97 x_CB14:15_f 
   + 0.97 x_CB14:15_l <= 39.64
 M_constraint_CB14:15_0: - 10000 y_CB14:15 + x_CB14:15_0 <= 0
 M_constraint_CB14:15_f: - 10000 y_CB14:15 + x_CB14:15_f <= 0
 M_constraint_CB14:15_l: - 10000 y_CB14:15 + x_CB14:15_l <= 0
 scale_constraint_CB14:15_f: 2.826 x_CB14:15_0 - 1.2 x_CB14:15_f >= 0
 scale_constraint_CB14:15_l: 1.475 x_CB14:15_0 - 1.2 x_CB14:15_l >= 0
 capacity_constraint_BA14:25: 2 x_BA14:25_f + x_BA14:25_l <= 187
 balance_constraint_BA14:25: 3.7 x_BA14:25_0 + 0.9 x_BA14:25_f 
   + 0.9 x_BA14:25_l <= 161.93
 M_constraint_BA14:25_0: - 10000 y_BA14:25 + x_BA14:25_0 <= 0
 M_constraint_BA14:25_f: - 10000 y_BA14:25 + x_BA14:25_f <= 0
 M_constraint_BA14:25_l: - 10000 y_BA14:25 + x_BA14:25_l <= 0
 scale_constraint_BA14:25_f: 3.079 x_BA14:25_0 - 2 x_BA14:25_f >= 0
 scale_constraint_BA14:25_l: 1.652 x_BA14:25_0 - 2 x_BA14:25_l >= 0
 capacity_constraint_BC14:25: 2 x_BC14:25_f + x_BC14:25_l <= 187
 balance_constraint_BC14:25: 3.7 x_BC14:25_0 + 0.9 x_BC14:25_f 
   + 0.9 x_BC14:25_l <= 11.07
 M_constraint_BC14:25_0: - 10000 y_BC14:25 + x_BC14:25_0 <= 0
 M_constraint_BC14:25_f: - 10000 y_BC14:25 + x_BC14:25_f <= 0
 M_constraint_BC14:25_l: - 10000 y_BC14:25 + x_BC14:25_l <= 0
 scale_constraint_BC14:25_f: 3.079 x_BC14:25_0 - 2 x_BC14:25_f >= 0
 scale_constraint_BC14:25_l: 1.652 x_BC14:25_0 - 2 x_BC14:25_l >= 0
 capacity_constraint_BA15:40: 2 x_BA15:40_f + x_BA15:40_l <= 187
 balance_constraint_BA15:40: 3.7 x_BA15:40_0 + 0.9 x_BA15:40_f 
   + 0.9 x_BA15:40_l <= 167.42
 M_constraint_BA15:40_0: - 10000 y_BA15:40 + x_BA15:40_0 <= 0
 M_constraint_BA15:40_f: - 10000 y_BA15:40 + x_BA15:40_f <= 0
 M_constraint_BA15:40_l: - 10000 y_BA15:40 + x_BA15:40_l <= 0
 scale_constraint_BA15:40_f: 3.079 x_BA15:40_0 - 2 x_BA15:40_f >= 0
 scale_constraint_BA15:40_l: 1.652 x_BA15:40_0 - 2 x_BA15:40_l >= 0
 capacity_constraint_BC15:40: 2 x_BC15:40_f + x_BC15:40_l <= 187
 balance_constraint_BC15:40: 3.7 x_BC15:40_0 + 0.9 x_BC15:40_f 
   + 0.9 x_BC15:40_l <= 14.96
 M_constraint_BC15:40_0: - 10000 y_BC15:40 + x_BC15:40_0 <= 0
 M_constraint_BC15:40_f: - 10000 y_BC15:40 + x_BC15:40_f <= 0
 M_constraint_BC15:40_l: - 10000 y_BC15:40 + x_BC15:40_l <= 0
 scale_constraint_BC15:40_f: 3.079 x_BC15:40_0 - 2 x_BC15:40_f >= 0
 scale_constraint_BC15:40_l: 1.652 x_BC15:40_0 - 2 x_BC15:40_l >= 0
 capacity_constraint_AC15:45: 2 x_AC15:45_f + x_AC15:45_l <= 187
 balance_constraint_AC15:45: 4.92 x_AC15:45_0 + 0.72 x_AC15:45_f 
   + 0.72 x_AC15:45_l <= 154.21
 M_constraint_AC15:45_0: - 10000 y_AC15:45 + x_AC15:45_0 <= 0
 M_constraint_AC15:45_f: - 10000 y_AC15:45 + x_AC15:45_f <= 0
 M_constraint_AC15:45_l: - 10000 y_AC15:45 + x_AC15:45_l <= 0
 scale_constraint_AC15:45_f: 2.803 x_AC15:45_0 - 0.9 x_AC15:45_f >= 0
 scale_constraint_AC15:45_l: 1.367 x_AC15:45_0 - 0.9 x_AC15:45_l >= 0
 capacity_constraint_AB16:05: 2 x_AB16:05_f + x_AB16:05_l <= 187
 balance_constraint_AB16:05: 4.92 x_AB16:05_0 + 0.72 x_AB16:05_f 
   + 0.72 x_AB16:05_l <= 193.22
 M_constraint_AB16:05_0: - 10000 y_AB16:05 + x_AB16:05_0 <= 0
 M_constraint_AB16:05_f: - 10000 y_AB16:05 + x_AB16:05_f <= 0
 M_constraint_AB16:05_l: - 10000 y_AB16:05 + x_AB16:05_l <= 0
 scale_constraint_AB16:05_f: 2.803 x_AB16:05_0 - 0.9 x_AB16:05_f >= 0
 scale_constraint_AB16:05_l: 1.367 x_AB16:05_0 - 0.9 x_AB16:05_l >= 0
 capacity_constraint_BC16:30: 2 x_BC16:30_f + x_BC16:30_l <= 187
 balance_constraint_BC16:30: 3.7 x_BC16:30_0 + 0.9 x_BC16:30_f 
   + 0.9 x_BC16:30_l <= 98.72
 M_constraint_BC16:30_0: - 10000 y_BC16:30 + x_BC16:30_0 <= 0
 M_constraint_BC16:30_f: - 10000 y_BC16:30 + x_BC16:30_f <= 0
 M_constraint_BC16:30_l: - 10000 y_BC16:30 + x_BC16:30_l <= 0
 scale_constraint_BC16:30_f: 3.079 x_BC16:30_0 - 2 x_BC16:30_f >= 0
 scale_constraint_BC16:30_l: 1.652 x_BC16:30_0 - 2 x_BC16:30_l >= 0
 capacity_constraint_CA16:55: 2 x_CA16:55_f + x_CA16:55_l <= 187
 balance_constraint_CA16:55: 1.72 x_CA16:55_0 + 0.97 x_CA16:55_f 
   + 0.97 x_CA16:55_l <= 173.79
 M_constraint_CA16:55_0: - 10000 y_CA16:55 + x_CA16:55_0 <= 0
 M_constraint_CA16:55_f: - 10000 y_CA16:55 + x_CA16:55_f <= 0
 M_constraint_CA16:55_l: - 10000 y_CA16:55 + x_CA16:55_l <= 0
 scale_constraint_CA16:55_f: 2.826 x_CA16:55_0 - 1.2 x_CA16:55_f >= 0
 scale_constraint_CA16:55_l: 1.475 x_CA16:55_0 - 1.2 x_CA16:55_l >= 0
 capacity_constraint_CB16:55: 2 x_CB16:55_f + x_CB16:55_l <= 187
 balance_constraint_CB16:55: 1.72 x_CB16:55_0 + 0.97 x_CB16:55_f 
   + 0.97 x_CB16:55_l <= 4.4
 M_constraint_CB16:55_0: - 10000 y_CB16:55 + x_CB16:55_0 <= 0
 M_constraint_CB16:55_f: - 10000 y_CB16:55 + x_CB16:55_f <= 0
 M_constraint_CB16:55_l: - 10000 y_CB16:55 + x_CB16:55_l <= 0
 scale_constraint_CB16:55_f: 2.826 x_CB16:55_0 - 1.2 x_CB16:55_f >= 0
 scale_constraint_CB16:55_l: 1.475 x_CB16:55_0 - 1.2 x_CB16:55_l >= 0
 capacity_constraint_AB17:05: 2 x_AB17:05_f + x_AB17:05_l <= 187
 balance_constraint_AB17:05: 4.92 x_AB17:05_0 + 0.72 x_AB17:05_f 
   + 0.72 x_AB17:05_l <= 179.5
 M_constraint_AB17:05_0: - 10000 y_AB17:05 + x_AB17:05_0 <= 0
 M_constraint_AB17:05_f: - 10000 y_AB17:05 + x_AB17:05_f <= 0
 M_constraint_AB17:05_l: - 10000 y_AB17:05 + x_AB17:05_l <= 0
 scale_constraint_AB17:05_f: 2.803 x_AB17:05_0 - 0.9 x_AB17:05_f >= 0
 scale_constraint_AB17:05_l: 1.367 x_AB17:05_0 - 0.9 x_AB17:05_l >= 0
 capacity_constraint_AC17:25: 2 x_AC17:25_f + x_AC17:25_l <= 187
 balance_constraint_AC17:25: 4.92 x_AC17:25_0 + 0.72 x_AC17:25_f 
   + 0.72 x_AC17:25_l <= 149.28
 M_constraint_AC17:25_0: - 10000 y_AC17:25 + x_AC17:25_0 <= 0
 M_constraint_AC17:25_f: - 10000 y_AC17:25 + x_AC17:25_f <= 0
 M_constraint_AC17:25_l: - 10000 y_AC17:25 + x_AC17:25_l <= 0
 scale_constraint_AC17:25_f: 2.803 x_AC17:25_0 - 0.9 x_AC17:25_f >= 0
 scale_constraint_AC17:25_l: 1.367 x_AC17:25_0 - 0.9 x_AC17:25_l >= 0
 capacity_constraint_CB17:40: 2 x_CB17:40_f + x_CB17:40_l <= 187
 balance_constraint_CB17:40: 1.72 x_CB17:40_0 + 0.97 x_CB17:40_f 
   + 0.97 x_CB17:40_l <= 141.07
 M_constraint_CB17:40_0: - 10000 y_CB17:40 + x_CB17:40_0 <= 0
 M_constraint_CB17:40_f: - 10000 y_CB17:40 + x_CB17:40_f <= 0
 M_constraint_CB17:40_l: - 10000 y_CB17:40 + x_CB17:40_l <= 0
 scale_constraint_CB17:40_f: 2.826 x_CB17:40_0 - 1.2 x_CB17:40_f >= 0
 scale_constraint_CB17:40_l: 1.475 x_CB17:40_0 - 1.2 x_CB17:40_l >= 0
 capacity_constraint_AB18:00: 2 x_AB18:00_f + x_AB18:00_l <= 187
 balance_constraint_AB18:00: 4.92 x_AB18:00_0 + 0.72 x_AB18:00_f 
   + 0.72 x_AB18:00_l <= 117.78
 M_constraint_AB18:00_0: - 10000 y_AB18:00 + x_AB18:00_0 <= 0
 M_constraint_AB18:00_f: - 10000 y_AB18:00 + x_AB18:00_f <= 0
 M_constraint_AB18:00_l: - 10000 y_AB18:00 + x_AB18:00_l <= 0
 scale_constraint_AB18:00_f: 1.624 x_AB18:00_0 - 0.9 x_AB18:00_f >= 0
 scale_constraint_AB18:00_l: 0.793 x_AB18:00_0 - 0.9 x_AB18:00_l >= 0
 capacity_constraint_CA18:30: 2 x_CA18:30_f + x_CA18:30_l <= 187
 balance_constraint_CA18:30: 1.72 x_CA18:30_0 + 0.97 x_CA18:30_f 
   + 0.97 x_CA18:30_l <= 166.5
 M_constraint_CA18:30_0: - 10000 y_CA18:30 + x_CA18:30_0 <= 0
 M_constraint_CA18:30_f: - 10000 y_CA18:30 + x_CA18:30_f <= 0
 M_constraint_CA18:30_l: - 10000 y_CA18:30 + x_CA18:30_l <= 0
 scale_constraint_CA18:30_f: 3.126 x_CA18:30_0 - 1.2 x_CA18:30_f >= 0
 scale_constraint_CA18:30_l: 1.631 x_CA18:30_0 - 1.2 x_CA18:30_l >= 0
 capacity_constraint_CB18:30: 2 x_CB18:30_f + x_CB18:30_l <= 187
 balance_constraint_CB18:30: 1.72 x_CB18:30_0 + 0.97 x_CB18:30_f 
   + 0.97 x_CB18:30_l <= 16.95
 M_constraint_CB18:30_0: - 10000 y_CB18:30 + x_CB18:30_0 <= 0
 M_constraint_CB18:30_f: - 10000 y_CB18:30 + x_CB18:30_f <= 0
 M_constraint_CB18:30_l: - 10000 y_CB18:30 + x_CB18:30_l <= 0
 scale_constraint_CB18:30_f: 3.126 x_CB18:30_0 - 1.2 x_CB18:30_f >= 0
 scale_constraint_CB18:30_l: 1.631 x_CB18:30_0 - 1.2 x_CB18:30_l >= 0
 capacity_constraint_BA18:50: 2 x_BA18:50_f + x_BA18:50_l <= 187
 balance_constraint_BA18:50: 3.7 x_BA18:50_0 + 0.9 x_BA18:50_f 
   + 0.9 x_BA18:50_l <= 178.65
 M_constraint_BA18:50_0: - 10000 y_BA18:50 + x_BA18:50_0 <= 0
 M_constraint_BA18:50_f: - 10000 y_BA18:50 + x_BA18:50_f <= 0
 M_constraint_BA18:50_l: - 10000 y_BA18:50 + x_BA18:50_l <= 0
 scale_constraint_BA18:50_f: 2.411 x_BA18:50_0 - 2 x_BA18:50_f >= 0
 scale_constraint_BA18:50_l: 1.293 x_BA18:50_0 - 2 x_BA18:50_l >= 0
 capacity_constraint_BC19:05: 2 x_BC19:05_f + x_BC19:05_l <= 187
 balance_constraint_BC19:05: 3.7 x_BC19:05_0 + 0.9 x_BC19:05_f 
   + 0.9 x_BC19:05_l <= 154.71
 M_constraint_BC19:05_0: - 10000 y_BC19:05 + x_BC19:05_0 <= 0
 M_constraint_BC19:05_f: - 10000 y_BC19:05 + x_BC19:05_f <= 0
 M_constraint_BC19:05_l: - 10000 y_BC19:05 + x_BC19:05_l <= 0
 scale_constraint_BC19:05_f: 2.411 x_BC19:05_0 - 2 x_BC19:05_f >= 0
 scale_constraint_BC19:05_l: 1.293 x_BC19:05_0 - 2 x_BC19:05_l >= 0
 capacity_constraint_AB19:10: 2 x_AB19:10_f + x_AB19:10_l <= 187
 balance_constraint_AB19:10: 4.92 x_AB19:10_0 + 0.72 x_AB19:10_f 
   + 0.72 x_AB19:10_l <= 141.78
 M_constraint_AB19:10_0: - 10000 y_AB19:10 + x_AB19:10_0 <= 0
 M_constraint_AB19:10_f: - 10000 y_AB19:10 + x_AB19:10_f <= 0
 M_constraint_AB19:10_l: - 10000 y_AB19:10 + x_AB19:10_l <= 0
 scale_constraint_AB19:10_f: 1.624 x_AB19:10_0 - 0.9 x_AB19:10_f >= 0
 scale_constraint_AB19:10_l: 0.793 x_AB19:10_0 - 0.9 x_AB19:10_l >= 0
 capacity_constraint_BA20:25: 2 x_BA20:25_f + x_BA20:25_l <= 187
 balance_constraint_BA20:25: 3.7 x_BA20:25_0 + 0.9 x_BA20:25_f 
   + 0.9 x_BA20:25_l <= 181.08
 M_constraint_BA20:25_0: - 10000 y_BA20:25 + x_BA20:25_0 <= 0
 M_constraint_BA20:25_f: - 10000 y_BA20:25 + x_BA20:25_f <= 0
 M_constraint_BA20:25_l: - 10000 y_BA20:25 + x_BA20:25_l <= 0
 scale_constraint_BA20:25_f: 2.411 x_BA20:25_0 - 2 x_BA20:25_f >= 0
 scale_constraint_BA20:25_l: 1.293 x_BA20:25_0 - 2 x_BA20:25_l >= 0
 capacity_constraint_AB22:45: 2 x_AB22:45_f + x_AB22:45_l <= 187
 balance_constraint_AB22:45: 4.92 x_AB22:45_0 + 0.72 x_AB22:45_f 
   + 0.72 x_AB22:45_l <= 159.14
 M_constraint_AB22:45_0: - 10000 y_AB22:45 + x_AB22:45_0 <= 0
 M_constraint_AB22:45_f: - 10000 y_AB22:45 + x_AB22:45_f <= 0
 M_constraint_AB22:45_l: - 10000 y_AB22:45 + x_AB22:45_l <= 0
 scale_constraint_AB22:45_f: 2.671 x_AB22:45_0 - 0.9 x_AB22:45_f >= 0
 scale_constraint_AB22:45_l: 1.303 x_AB22:45_0 - 0.9 x_AB22:45_l >= 0
 balance_constraint_A: y_AB11:20 + y_AB12:40 + y_AB12:55 + y_AC13:05 
   + y_AB13:55 + y_AC15:45 + y_AB16:05 + y_AB17:05 + y_AC17:25 + y_AB18:00 
   + y_AB19:10 + y_AB22:45 - y_BA12:25 - y_CA14:15 - y_BA14:25 - y_BA15:40 
   - y_CA16:55 - y_CA18:30 - y_BA18:50 - y_BA20:25 = 0
 balance_constraint_B: y_BC11:20 + y_BA12:25 + y_BC12:25 + y_BA14:25 
   + y_BC14:25 + y_BA15:40 + y_BC15:40 + y_BC16:30 + y_BA18:50 + y_BC19:05 
   + y_BA20:25 - y_CB10:45 - y_AB11:20 - y_CB12:35 - y_AB12:40 - y_AB12:55 
   - y_AB13:55 - y_CB14:15 - y_AB16:05 - y_CB16:55 - y_AB17:05 - y_CB17:40 
   - y_AB18:00 - y_CB18:30 - y_AB19:10 - y_AB22:45 = 0
 balance_constraint_C: y_CB10:45 + y_CB12:35 + y_CA14:15 + y_CB14:15 
   + y_CA16:55 + y_CB16:55 + y_CB17:40 + y_CA18:30 + y_CB18:30 - y_BC11:20 
   - y_BC12:25 - y_AC13:05 - y_BC14:25 - y_BC15:40 - y_AC15:45 - y_BC16:30 
   - y_AC17:25 - y_BC19:05 = 0
 cardinality_constraint: y_CB10:45 + y_AB11:20 + y_BC11:20 + y_BA12:25 
   + y_BC12:25 + y_CB12:35 + y_AB12:40 + y_AB12:55 + y_AC13:05 + y_AB13:55 
   + y_CA14:15 + y_CB14:15 + y_BA14:25 + y_BC14:25 + y_BA15:40 + y_BC15:40 
   + y_AC15:45 + y_AB16:05 + y_BC16:30 + y_CA16:55 + y_CB16:55 + y_AB17:05 
   + y_AC17:25 + y_CB17:40 + y_AB18:00 + y_CA18:30 + y_CB18:30 + y_BA18:50 
   + y_BC19:05 + y_AB19:10 + y_BA20:25 + y_AB22:45 <= 8
Binaries
 y_CB10:45  y_AB11:20  y_BC11:20  y_BA12:25  y_BC12:25  y_CB12:35  
 y_AB12:40  y_AB12:55  y_AC13:05  y_AB13:55  y_CA14:15  y_CB14:15  
 y_BA14:25  y_BC14:25  y_BA15:40  y_BC15:40  y_AC15:45  y_AB16:05  
 y_BC16:30  y_CA16:55  y_CB16:55  y_AB17:05  y_AC17:25  y_CB17:40  
 y_AB18:00  y_CA18:30  y_CB18:30  y_BA18:50  y_BC19:05  y_AB19:10  
 y_BA20:25  y_AB22:45  
END

